
Gurobi 7.0.2 (linux64, Python) logging started Fri Apr 21 19:26:40 2017


Gurobi 7.0.2 (linux64, Python) logging started Fri Apr 21 19:36:14 2017


Gurobi 7.0.2 (linux64, Python) logging started Fri Apr 21 19:37:03 2017


Gurobi 7.0.2 (linux64, Python) logging started Fri Apr 21 20:00:02 2017


Gurobi 7.0.2 (linux64, Python) logging started Fri Apr 21 20:45:25 2017


Gurobi 7.0.2 (linux64, Python) logging started Fri May  5 09:22:55 2017


Gurobi 7.0.2 (linux64, Python) logging started Fri May  5 09:32:23 2017


Gurobi 7.0.2 (linux64, Python) logging started Fri May  5 09:33:16 2017


Gurobi 7.0.2 (linux64, Python) logging started Fri May  5 09:55:55 2017


Gurobi 7.0.2 (linux64, Python) logging started Fri May  5 10:41:38 2017


Gurobi 7.0.2 (linux64, Python) logging started Fri May  5 11:10:28 2017


Gurobi 7.0.2 (linux64, Python) logging started Fri May  5 11:13:53 2017

